26 26
6 8
8 9
1 5
10 2
1 2
2 2
10 10
3 6
2 2
1 5
1 6
1 5
8 7
5 2
1 9
3 1
5 10
5 6
4 9
8 9
7 8
1 6
8 9
2 6
6 9
6 6
18 18 80
16 11 82
19 18 58
18 20 98
12 11 80
12 12 51
13 17 75
18 15 70
17 17 50
16 16 67
17 18 90
13 10 55
14 14 72
17 17 85
20 16 91
16 16 89
13 14 54
17 13 50
11 13 57
14 17 68
17 12 83
19 14 82
20 13 53
13 11 91
11 18 75
12 16 82
